22
1 0 38
2 0 24
2 1 15
3 0 13
3 1 27
3 2 11
4 0 29
4 1 24
4 2 41
4 3 8
5 0 26
5 1 36
5 2 26
5 3 19
5 4 28
6 0 16
6 1 23
6 2 9
6 3 32
6 4 31
6 5 37
7 0 39
7 1 3
7 2 32
7 3 22
7 4 7
7 5 28
7 6 39
8 0 24
8 1 2
8 2 30
8 3 25
8 4 28
8 5 40
8 6 35
8 7 27
9 0 28
9 1 11
9 2 36
9 3 21
9 4 22
9 5 8
9 6 6
9 7 32
9 8 5
10 0 33
10 1 18
10 2 27
10 3 20
10 4 37
10 5 17
10 6 1
10 7 26
10 8 23
10 9 31
11 0 37
11 1 35
11 2 13
11 3 20
11 4 17
11 5 17
11 6 3
11 7 22
11 8 3
11 9 40
11 10 21
12 0 7
12 1 12
12 2 28
12 3 28
12 4 17
12 5 28
12 6 20
12 7 35
12 8 33
12 9 35
12 10 36
12 11 26
13 0 41
13 1 23
13 2 23
13 3 10
13 4 13
13 5 6
13 6 30
13 7 21
13 8 39
13 9 2
13 10 3
13 11 22
13 12 10
14 0 24
14 1 9
14 2 23
14 3 3
14 4 12
14 5 4
14 6 9
14 7 13
14 8 34
14 9 10
14 10 15
14 11 15
14 12 26
14 13 10
15 0 36
15 1 20
15 2 14
15 3 42
15 4 18
15 5 28
15 6 24
15 7 4
15 8 12
15 9 3
15 10 16
15 11 18
15 12 41
15 13 31
15 14 28
16 0 27
16 1 35
16 2 10
16 3 12
16 4 6
16 5 36
16 6 32
16 7 32
16 8 42
16 9 11
16 10 13
16 11 24
16 12 16
16 13 21
16 14 9
16 15 23
17 0 34
17 1 31
17 2 23
17 3 7
17 4 32
17 5 5
17 6 12
17 7 11
17 8 4
17 9 20
17 10 1
17 11 25
17 12 25
17 13 36
17 14 20
17 15 25
17 16 28
18 0 15
18 1 29
18 2 41
18 3 17
18 4 7
18 5 2
18 6 41
18 7 11
18 8 21
18 9 20
18 10 15
18 11 32
18 12 12
18 13 15
18 14 39
18 15 40
18 16 17
18 17 37
19 0 29
19 1 18
19 2 33
19 3 7
19 4 36
19 5 14
19 6 11
19 7 11
19 8 39
19 9 32
19 10 12
19 11 35
19 12 35
19 13 5
19 14 1
19 15 38
19 16 13
19 17 21
19 18 5
20 0 20
20 1 37
20 2 16
20 3 10
20 4 25
20 5 6
20 6 35
20 7 22
20 8 3
20 9 8
20 10 14
20 11 36
20 12 3
20 13 9
20 14 27
20 15 13
20 16 16
20 17 42
20 18 23
20 19 40
21 0 40
21 1 23
21 2 11
21 3 14
21 4 40
21 5 8
21 6 37
21 7 4
21 8 21
21 9 29
21 10 12
21 11 20
21 12 38
21 13 26
21 14 37
21 15 35
21 16 40
21 17 26
21 18 39
21 19 10
21 20 29
